CMD:
./solvers/bin/cadical --plain --no-reduce -t 1600 ./data/cnfs//6s374b114/6s374b114.53.cnf

c --- [ banner ] -------------------------------------------------------------
c 
c CaDiCaL SAT Solver
c Copyright (c) 2016-2024
c A. Biere, M. Fleury, N. Froleyks, K. Fazekas, F. Pollitt, T. Faller
c JKU Linz, University of Freiburg, TU Wien
c 
c Version 2.1.3 5296d3d2a9bf48c154ab2acb5e44625776d821bf
c g++ (Gentoo 12.3.1_p20230526 p2) 12.3.1 20230526 -Wall -Wextra -O3 -DNDEBUG
c Sat Aug 9 07:26:21 PDT 2025 Linux cedar2.int.cedar.computecanada.ca 5.14.0-362.24.2.el9_3.x86_64 x86_64
c 
c --- [ limit ] --------------------------------------------------------------
c 
c setting time limit to 1600 seconds real time (due to '-t 1600')
c 
c --- [ parsing input ] ------------------------------------------------------
c 
c reading DIMACS file from './data/cnfs//6s374b114/6s374b114.53.cnf'
c opening file to read './data/cnfs//6s374b114/6s374b114.53.cnf'
c found 'p cnf 17724165 52429220' header
c parsed 52429220 clauses in 9.83 seconds process time
c 
c --- [ options ] ------------------------------------------------------------
c 
c   --compact=false                (different from default 'true')
c   --decompose=false              (different from default 'true')
c   --deduplicate=false            (different from default 'true')
c   --elim=false                   (different from default 'true')
c   --probe=false                  (different from default 'true')
c   --reduce=false                 (different from default 'true')
c   --subsume=false                (different from default 'true')
c   --ternary=false                (different from default 'true')
c   --transred=false               (different from default 'true')
c   --vivify=false                 (different from default 'true')
c 
c --- [ solving ] ------------------------------------------------------------
c 
c time measured in process time since initialization
c 
c  seconds    reductions  redundant   irredundant
c          MB     restarts       trail          variables
c            level   conflicts       glue              remaining
c 
c *  9.83 7335  0 0   0    0    0  0% 0 45226288 13707309 77%
c { 10.24 7358  0 0   0    0    0  0% 0 45226288 13707309 77%
c } 19.84 7390 1227 0  81 1000  862 28% 3 45226288 13707309 77%
c [ 19.84 7390  0 0  81 1000  862  0% 0 45226288 13707309 77%
c i 19.88 7390 1428 0  81 1002  863 35% 0 45226288 13707231 77%
c O 20.35 7390 9596 0  81 1003  863 32% 0 45226288 13707231 77%
c i 20.35 7390 9596 0  81 1003  863 32% 0 45226288 13707227 77%
c i 20.36 7390 13680 0  81 1004  863 31% 0 45226288 13707205 77%
c i 20.37 7390 16143 0  81 1005  863 30% 0 45226288 13707204 77%
c i 20.38 7390 19839 0  81 1008  865 29% 1 45226288 13707203 77%
c i 20.57 7391 22270 0  81 1013  869 29% 1 45226288 13707166 77%
c i 20.69 7391 23682 0  81 1020  875 29% 1 45226288 13707165 77%
c i 20.70 7391 24036 0  81 1023  877 29% 1 45226288 13707164 77%
c i 20.87 7393 24485 0  81 1028  881 29% 1 45226288 13707127 77%
c i 20.96 7393 24875 0  81 1034  886 30% 1 45226288 13707126 77%
c ] 29.32 7476 30735 0  81 1358 1207 67% 1 45226288 13706967 77%
c 0 29.32 7476 30735 0  81 1358 1207 67% 1 45226288 13706967 77%
c 
c --- [ result ] -------------------------------------------------------------
c 
s UNSATISFIABLE
c 
c --- [ run-time profiling ] -------------------------------------------------
c 
c process time taken by individual solving procedures
c (percentage relative to process time for solving)
c 
c        19.50  100.00% search
c         9.83   50.39% parse
c         9.60   49.25% unstable
c         9.48   48.62% stable
c         0.42    2.13% lucky
c         0.00    0.00% simplify
c   =================================
c        19.50   66.49% solve
c 
c last line shows process time for solving
c (percentage relative to total process time)
c 
c --- [ statistics ] ---------------------------------------------------------
c 
c chronological:               880        64.80 %  of conflicts
c conflicts:                  1358        69.65    per second
c decisions:                122181      6266.07    per second
c fixed:                   3991505        22.52 %  of all variables
c learned:                    1225        90.21 %  per conflict
c learned_lits:               7373       100.00 %  learned literals
c minimized:                     0         0.00 %  learned literals
c shrunken:                    909        12.33 %  learned literals
c minishrunken:                217         2.94 %  learned literals
c otfs:                          4         0.29 %  of conflict
c propagations:           94742915         4.86 M  per second
c rephased:                      1      1358.00    interval
c restarts:                     81        16.77    interval
c stabilizing:                   1        26.36 %  of conflicts
c subsumed:                      7         0.00 %  of all clauses
c strengthened:                  4         0.00 %  of all clauses
c 
c seconds are measured in process time for solving
c 
c --- [ resources ] ----------------------------------------------------------
c 
c total process time since initialization:        29.33    seconds
c total real time since initialization:           29.63    seconds
c maximum resident set size of process:         7534.76    MB
c 
c --- [ shutting down ] ------------------------------------------------------
c 
c exit 20
